Route #1: 57 94 64 105 69 17 31 13 74
Route #2: 82 63 40 2 83 77 85 54 21
Route #3: 5 44 76 60 51 100 45 96
Route #4: 29 72 34 11 99 49 71
Route #5: 53 103 101 28 93 97 43 87
Route #6: 14 58 88 91 36 8 48 67
Route #7: 1 104 12 9 84 75 7
Route #8: 62 26 90 24 102 92 52
Route #9: 78 19 27 37 79 46 66 15
Route #10: 22 33
Route #11: 56 20 16 10 41 18 86
Route #12: 59 89 30 42 23 3 32 73 35
Route #13: 55 98 4 70 6 81 50 39
Route #14: 68 95 38 65 80 61 47 25
Cost 26376
